Normalized Data/p03_110_tsplib0_normalized_split0.vrp
NAME:p03_110_tsplib0_NORMALIZED_split
BEST_KNOWN: 0
COMMENT: 0
DIMENSION: 288
CAPACITY: 100
EDGE_WEIGHT_FORMAT: FUNCTION
EDGE_WEIGHT_TYPE: EXACT_2D
NODE_COORD_SECTION
1 0.00000 0.00000
2 6 14
3 6 14
4 6 14
5 6 14
6 0 -18
7 0 -18
8 0 -18
9 0 -18
10 20 10
11 20 10
12 20 10
13 20 -15
14 20 -15
15 -20 -5
16 -20 -5
17 -20 -5
18 -20 -5
19 -20 -5
20 -10 -5
21 -10 -5
22 -10 -5
23 -10 -5
24 -15 15
25 -25 8
26 20 25
27 20 25
28 -5 25
29 -15 30
30 -15 30
31 -15 30
32 -15 30
33 15 0
34 15 0
35 15 0
36 15 0
37 -5 -10
38 -20 -25
39 -5 -30
40 -5 -30
41 -5 -30
42 -25 -15
43 -25 -15
44 -25 -15
45 -30 -5
46 -15 5
47 -20 25
48 -20 25
49 -20 25
50 -20 25
51 10 30
52 10 -15
53 10 -25
54 10 -25
55 20 -30
56 20 -30
57 30 0
58 30 0
59 30 -15
60 30 -15
61 30 -15
62 30 -15
63 10 -5
64 10 -5
65 10 -5
66 0 5
67 6 2
68 6 2
69 6 2
70 29 7
71 29 7
72 5 25
73 -4 17
74 -4 17
75 -4 17
76 -4 17
77 0 34
78 0 34
79 0 34
80 0 34
81 18 17
82 18 17
83 18 17
84 18 17
85 30 20
86 30 20
87 28 30
88 28 30
89 28 30
90 28 30
91 -33 25
92 -15 -15
93 -15 -15
94 -15 -15
95 -15 -15
96 -30 -30
97 25 -23
98 5 -10
99 5 -10
100 5 -10
101 5 -10
102 7 -28
103 7 -28
104 -11 -23
105 -12 -32
106 -12 -32
107 -24 -21
108 -24 -21
109 -24 -21
110 -29 3
111 -29 3
112 -29 3
113 -29 3
114 -33 13
115 -33 13
116 -33 13
117 -27 21
118 -22 17
119 -22 17
120 -22 17
121 -22 17
122 -29 33
123 -29 33
124 -29 33
125 -29 33
126 12 12
127 12 12
128 14 23
129 14 23
130 -8 8
131 -8 8
132 2 -4
133 22 -6
134 22 -6
135 22 -6
136 22 -6
137 22 -6
138 28 -12
139 28 -12
140 28 -12
141 18 -23
142 18 -23
143 18 -23
144 -3 -23
145 -3 -23
146 -3 -23
147 1 -9
148 1 -9
149 1 -9
150 -14 -11
151 -14 -11
152 -14 -11
153 -14 -11
154 -18 -1
155 -18 -1
156 -18 -1
157 -18 -1
158 -23 -11
159 -23 -11
160 -23 -11
161 -23 -11
162 -11 23
163 -11 23
164 -11 23
165 -8 34
166 -8 34
167 -8 34
168 -20 42
169 -20 42
170 -20 42
171 27 42
172 27 42
173 27 42
174 27 42
175 14 38
176 32 -30
177 32 -30
178 32 -30
179 32 -30
180 21 4
181 2 12
182 2 12
183 2 12
184 2 12
185 2 12
186 2 21
187 2 21
188 2 21
189 2 21
190 22 33
191 22 33
192 22 33
193 22 33
194 22 33
195 12 -19
196 12 -19
197 12 -19
198 12 -19
199 12 -19
200 9 -18
201 9 -18
202 9 -18
203 9 -18
204 11 -22
205 11 -22
206 11 -22
207 11 -22
208 11 -22
209 14 -24
210 14 7
211 14 7
212 14 7
213 18 8
214 18 8
215 26 17
216 26 17
217 26 17
218 22 13
219 22 13
220 21 2
221 21 2
222 21 2
223 21 2
224 20 19
225 20 19
226 -20 12
227 -20 12
228 -20 12
229 -21 2
230 -21 2
231 -21 2
232 -24 -4
233 -24 -4
234 -19 -13
235 -19 -13
236 -19 -13
237 -19 -13
238 -19 -13
239 -31 -17
240 -31 -17
241 -31 -17
242 -31 -17
243 -7 -17
244 -7 -17
245 -7 -17
246 -7 -17
247 -7 -17
248 -9 17
249 -9 17
250 -9 17
251 -9 17
252 -9 0
253 -9 0
254 -9 0
255 -9 0
256 -4 32
257 -4 32
258 -20 -16
259 -20 -16
260 -20 -16
261 -20 -16
262 -13 -13
263 -13 -13
264 -17 -11
265 -17 -11
266 -9 -8
267 -9 -8
268 -9 -8
269 -9 -8
270 -9 -8
271 -10 -11
272 -10 -11
273 -10 -11
274 -13 -8
275 -13 -8
276 -13 -8
277 -13 -8
278 -10 -14
279 -10 -14
280 -10 -14
281 -16 -14
282 -16 -14
283 -16 -14
284 -16 -14
285 -15 -9
286 -15 -9
287 -15 -9
288 -17 -17
DEMAND_SECTION
1 0
2 5
3 1
4 1
5 1
6 1
7 1
8 1
9 1
10 1
11 1
12 1
13 5
14 1
15 5
16 1
17 1
18 1
19 1
20 5
21 1
22 1
23 1
24 5
25 1
26 1
27 1
28 1
29 5
30 1
31 1
32 1
33 1
34 1
35 1
36 1
37 5
38 5
39 5
40 1
41 1
42 1
43 1
44 1
45 1
46 5
47 5
48 1
49 1
50 1
51 5
52 1
53 5
54 1
55 5
56 1
57 5
58 1
59 5
60 1
61 1
62 1
63 5
64 1
65 1
66 1
67 5
68 1
69 1
70 1
71 1
72 1
73 5
74 1
75 1
76 1
77 5
78 1
79 1
80 1
81 5
82 1
83 1
84 1
85 1
86 1
87 5
88 1
89 1
90 1
91 5
92 5
93 1
94 1
95 1
96 5
97 5
98 5
99 1
100 1
101 1
102 1
103 1
104 1
105 5
106 1
107 5
108 1
109 1
110 5
111 1
112 1
113 1
114 1
115 1
116 1
117 5
118 1
119 1
120 1
121 1
122 5
123 1
124 1
125 1
126 5
127 1
128 5
129 1
130 5
131 1
132 1
133 5
134 1
135 1
136 1
137 1
138 5
139 1
140 1
141 5
142 1
143 1
144 1
145 1
146 1
147 5
148 1
149 1
150 1
151 1
152 1
153 1
154 1
155 1
156 1
157 1
158 5
159 1
160 1
161 1
162 1
163 1
164 1
165 1
166 1
167 1
168 1
169 1
170 1
171 1
172 1
173 1
174 1
175 5
176 5
177 1
178 1
179 1
180 1
181 5
182 1
183 1
184 1
185 1
186 5
187 1
188 1
189 1
190 5
191 1
192 1
193 1
194 1
195 5
196 1
197 1
198 1
199 1
200 5
201 1
202 1
203 1
204 5
205 1
206 1
207 1
208 1
209 1
210 1
211 1
212 1
213 5
214 1
215 5
216 1
217 1
218 5
219 1
220 5
221 1
222 1
223 1
224 5
225 1
226 1
227 1
228 1
229 5
230 1
231 1
232 5
233 1
234 5
235 1
236 1
237 1
238 1
239 5
240 1
241 1
242 1
243 5
244 1
245 1
246 1
247 1
248 5
249 1
250 1
251 1
252 5
253 1
254 1
255 1
256 1
257 1
258 5
259 1
260 1
261 1
262 5
263 1
264 1
265 1
266 5
267 1
268 1
269 1
270 1
271 5
272 1
273 1
274 5
275 1
276 1
277 1
278 5
279 1
280 1
281 1
282 1
283 1
284 1
285 5
286 1
287 1
288 1
DEPOT_SECTION
1
-1
EOF