Normalized Data/p03_110_tsplib0_normalized_split0.sol
287 -13 12 138 137 139 59 61 58 60 96 177 176 175 178 54 55 140 142 141 208 101 102 52 53 203 204 206 207 205 194 195 196 198 197 201 202 199 200 51 98 100 97 99 146 147 148 131 -20 21 19 22 274 276 275 273 285 284 286 151 149 152 150 264 263 233 237 234 235 236 260 259 258 257 287 282 281 280 283 91 92 94 93 261 262 279 277 278 270 271 272 266 265 268 267 269 -36 246 245 242 243 244 6 5 8 7 144 145 143 38 39 40 105 104 103 37 107 106 108 95 238 239 241 240 41 43 42 158 160 157 159 44 232 231 15 17 16 18 14 154 156 153 155 253 251 252 254 -64 63 62 33 35 34 32 179 219 222 220 221 134 136 135 132 133 56 57 70 69 85 84 215 214 216 217 218 11 9 10 212 213 210 209 211 67 68 66 -65 181 182 184 183 180 3 1 2 4 186 187 185 188 27 164 166 165 255 256 76 79 77 78 71 50 174 170 172 173 171 190 191 192 193 189 89 87 86 88 25 26 128 127 224 223 80 81 83 82 126 125 -73 74 72 75 248 247 249 250 161 162 163 47 48 46 49 28 31 29 30 169 167 168 122 124 123 121 90 115 114 113 116 120 117 118 119 23 226 225 227 24 110 109 111 112 229 228 230 45 130 129 0 





OBJ=
762.066
BEST_KNOWN=
0.000